50, 11993
272, 370
489, 589
82, 180
339, 438
73, 175
12, 113
284, 382
118, 220
312, 413
744, 844
36, 135
625, 724
136, 234
796, 897
737, 835
212, 314
849, 947
718, 819
75, 175
409, 508
701, 800
923, 1023
173, 272
252, 354
776, 877
963, 1063
94, 195
90, 190
752, 850
317, 415
387, 489
877, 979
746, 844
661, 762
868, 969
733, 835
811, 909
644, 742
594, 693
60, 161
910, 1008
912, 1013
352, 453
627, 727
17, 119
500, 599
624, 726
294, 393
415, 515
836, 935
